(declare-fun Constructed_Argument_t () String)
(declare-fun CreateAsClass () Bool)
(declare-fun Constructed_Argument () Real)
(declare-fun ExpandObjSwitcher () Real)
(declare-fun Constructed_Argument_2_t () String)
(declare-fun Constructed_Argument_2_Array_Length () Int)
(declare-fun CreateAsClass_2 () Bool)
(declare-fun Constructed_Argument_2 () (Array Int Real))
(assert (= Constructed_Argument_t "number"))
(assert (not CreateAsClass))
(assert (= Constructed_Argument 0.0))
(assert (= ExpandObjSwitcher 0.0))
(assert (= Constructed_Argument_2_t "array_number"))
(assert (>= Constructed_Argument_2_Array_Length 0))
(assert (not CreateAsClass_2))
(assert (not (<= (to_real Constructed_Argument_2_Array_Length) 0.0)))
(assert (not (= (select Constructed_Argument_2 0) 0.0)))
(assert (not (<= (to_real Constructed_Argument_2_Array_Length) 1.0)))
(assert (= (select Constructed_Argument_2 1) 0.0))
(assert (not (<= (to_real Constructed_Argument_2_Array_Length) 2.0)))
(check-sat)
